2867
1397
2806
2318
2494
2370
4096
3135
1519
1983
2581
3055
3990
576
289
1234
3095
3696
2928
1408
2169
920
1437
805
3305
4198
2067
1941
3137
3127
2467
2633
4197
3391
3313
1045
2790
1433
3205
4311
1281
1442
2377
449
1372
1369
3843
3610
2402
4483
2494
1927
3698
1937
949
1344
1087
2170
4563
4513
2592
2975
4164
3387
2196
320
541
3680
2990
1143
2092
3177
3706
2228
1825
3277
2951
3408
1103
1863
4424
1971
3947
408
2368
4097
3941
2005
929
2698
323
3046
4341
2386
2788
2163
1911
2073
3599
3708
